data/mps_files/pEFS/161_5.mps
NAME foo
ROWS
 N  OBJ
 E  allocateEach[1]
 E  allocateAllCash
 G  findWorstP[1,2]
 G  findWorstP[1,3]
 G  findWorstP[1,4]
 G  findWorstP[1,5]
 G  findWorstP[1,6]
 G  findWorstP[1,7]
 G  findWorstP[1,8]
 G  findWorstP[1,9]
 G  findWorstP[2,1]
 G  findWorstP[2,3]
 G  findWorstP[2,4]
 G  findWorstP[2,5]
 G  findWorstP[2,6]
 G  findWorstP[2,7]
 G  findWorstP[2,8]
 G  findWorstP[2,9]
 G  findWorstP[3,1]
 G  findWorstP[3,2]
 G  findWorstP[3,4]
 G  findWorstP[3,5]
 G  findWorstP[3,6]
 G  findWorstP[3,7]
 G  findWorstP[3,8]
 G  findWorstP[3,9]
 G  findWorstP[4,1]
 G  findWorstP[4,2]
 G  findWorstP[4,3]
 G  findWorstP[4,5]
 G  findWorstP[4,6]
 G  findWorstP[4,7]
 G  findWorstP[4,8]
 G  findWorstP[4,9]
 G  findWorstP[5,1]
 G  findWorstP[5,2]
 G  findWorstP[5,3]
 G  findWorstP[5,4]
 G  findWorstP[5,6]
 G  findWorstP[5,7]
 G  findWorstP[5,8]
 G  findWorstP[5,9]
 G  findWorstP[6,1]
 G  findWorstP[6,2]
 G  findWorstP[6,3]
 G  findWorstP[6,4]
 G  findWorstP[6,5]
 G  findWorstP[6,7]
 G  findWorstP[6,8]
 G  findWorstP[6,9]
 G  findWorstP[7,1]
 G  findWorstP[7,2]
 G  findWorstP[7,3]
 G  findWorstP[7,4]
 G  findWorstP[7,5]
 G  findWorstP[7,6]
 G  findWorstP[7,8]
 G  findWorstP[7,9]
 G  findWorstP[8,1]
 G  findWorstP[8,2]
 G  findWorstP[8,3]
 G  findWorstP[8,4]
 G  findWorstP[8,5]
 G  findWorstP[8,6]
 G  findWorstP[8,7]
 G  findWorstP[8,9]
 G  findWorstP[9,1]
 G  findWorstP[9,2]
 G  findWorstP[9,3]
 G  findWorstP[9,4]
 G  findWorstP[9,5]
 G  findWorstP[9,6]
 G  findWorstP[9,7]
 G  findWorstP[9,8]
COLUMNS
    z         OBJ       1
    z         findWorstP[1,2]  1
    z         findWorstP[1,3]  1
    z         findWorstP[1,4]  1
    z         findWorstP[1,5]  1
    z         findWorstP[1,6]  1
    z         findWorstP[1,7]  1
    z         findWorstP[1,8]  1
    z         findWorstP[1,9]  1
    z         findWorstP[2,1]  1
    z         findWorstP[2,3]  1
    z         findWorstP[2,4]  1
    z         findWorstP[2,5]  1
    z         findWorstP[2,6]  1
    z         findWorstP[2,7]  1
    z         findWorstP[2,8]  1
    z         findWorstP[2,9]  1
    z         findWorstP[3,1]  1
    z         findWorstP[3,2]  1
    z         findWorstP[3,4]  1
    z         findWorstP[3,5]  1
    z         findWorstP[3,6]  1
    z         findWorstP[3,7]  1
    z         findWorstP[3,8]  1
    z         findWorstP[3,9]  1
    z         findWorstP[4,1]  1
    z         findWorstP[4,2]  1
    z         findWorstP[4,3]  1
    z         findWorstP[4,5]  1
    z         findWorstP[4,6]  1
    z         findWorstP[4,7]  1
    z         findWorstP[4,8]  1
    z         findWorstP[4,9]  1
    z         findWorstP[5,1]  1
    z         findWorstP[5,2]  1
    z         findWorstP[5,3]  1
    z         findWorstP[5,4]  1
    z         findWorstP[5,6]  1
    z         findWorstP[5,7]  1
    z         findWorstP[5,8]  1
    z         findWorstP[5,9]  1
    z         findWorstP[6,1]  1
    z         findWorstP[6,2]  1
    z         findWorstP[6,3]  1
    z         findWorstP[6,4]  1
    z         findWorstP[6,5]  1
    z         findWorstP[6,7]  1
    z         findWorstP[6,8]  1
    z         findWorstP[6,9]  1
    z         findWorstP[7,1]  1
    z         findWorstP[7,2]  1
    z         findWorstP[7,3]  1
    z         findWorstP[7,4]  1
    z         findWorstP[7,5]  1
    z         findWorstP[7,6]  1
    z         findWorstP[7,8]  1
    z         findWorstP[7,9]  1
    z         findWorstP[8,1]  1
    z         findWorstP[8,2]  1
    z         findWorstP[8,3]  1
    z         findWorstP[8,4]  1
    z         findWorstP[8,5]  1
    z         findWorstP[8,6]  1
    z         findWorstP[8,7]  1
    z         findWorstP[8,9]  1
    z         findWorstP[9,1]  1
    z         findWorstP[9,2]  1
    z         findWorstP[9,3]  1
    z         findWorstP[9,4]  1
    z         findWorstP[9,5]  1
    z         findWorstP[9,6]  1
    z         findWorstP[9,7]  1
    z         findWorstP[9,8]  1
    cashProportion[1]  allocateAllCash  1
    cashProportion[1]  findWorstP[1,2]  4.0112314480545530e-01
    cashProportion[1]  findWorstP[1,3]  4.0112314480545530e-01
    cashProportion[1]  findWorstP[1,4]  4.0112314480545530e-01
    cashProportion[1]  findWorstP[1,5]  4.0112314480545530e-01
    cashProportion[1]  findWorstP[1,6]  4.0112314480545530e-01
    cashProportion[1]  findWorstP[1,7]  4.0112314480545530e-01
    cashProportion[1]  findWorstP[1,8]  4.0112314480545530e-01
    cashProportion[1]  findWorstP[1,9]  4.0112314480545530e-01
    cashProportion[1]  findWorstP[2,1]  -2.4034609838166959e-01
    cashProportion[1]  findWorstP[3,1]  -5.1519835136527559e-01
    cashProportion[1]  findWorstP[4,1]  -2.4416049483193619e-01
    cashProportion[1]  findWorstP[5,1]  -9.8007187193727541e-01
    cashProportion[1]  findWorstP[6,1]  -2.4332873712385433e-01
    cashProportion[1]  findWorstP[7,1]  -3.0740854595757766e-01
    cashProportion[1]  findWorstP[8,1]  -6.0606060606060608e-01
    cashProportion[1]  findWorstP[9,1]  -7.8678206136900086e-01
    cashProportion[2]  allocateAllCash  1
    cashProportion[2]  findWorstP[1,2]  -4.0112314480545530e-01
    cashProportion[2]  findWorstP[2,1]  2.4034609838166959e-01
    cashProportion[2]  findWorstP[2,3]  2.4034609838166959e-01
    cashProportion[2]  findWorstP[2,4]  2.4034609838166959e-01
    cashProportion[2]  findWorstP[2,5]  2.4034609838166959e-01
    cashProportion[2]  findWorstP[2,6]  2.4034609838166959e-01
    cashProportion[2]  findWorstP[2,7]  2.4034609838166959e-01
    cashProportion[2]  findWorstP[2,8]  2.4034609838166959e-01
    cashProportion[2]  findWorstP[2,9]  2.4034609838166959e-01
    cashProportion[2]  findWorstP[3,2]  -5.1519835136527559e-01
    cashProportion[2]  findWorstP[4,2]  -2.4416049483193619e-01
    cashProportion[2]  findWorstP[5,2]  -9.8007187193727541e-01
    cashProportion[2]  findWorstP[6,2]  -2.4332873712385433e-01
    cashProportion[2]  findWorstP[7,2]  -3.0740854595757766e-01
    cashProportion[2]  findWorstP[8,2]  -6.0606060606060608e-01
    cashProportion[2]  findWorstP[9,2]  -7.8678206136900086e-01
    cashProportion[3]  allocateAllCash  1
    cashProportion[3]  findWorstP[1,3]  -4.0112314480545530e-01
    cashProportion[3]  findWorstP[2,3]  -2.4034609838166959e-01
    cashProportion[3]  findWorstP[3,1]  5.1519835136527559e-01
    cashProportion[3]  findWorstP[3,2]  5.1519835136527559e-01
    cashProportion[3]  findWorstP[3,4]  5.1519835136527559e-01
    cashProportion[3]  findWorstP[3,5]  5.1519835136527559e-01
    cashProportion[3]  findWorstP[3,6]  5.1519835136527559e-01
    cashProportion[3]  findWorstP[3,7]  5.1519835136527559e-01
    cashProportion[3]  findWorstP[3,8]  5.1519835136527559e-01
    cashProportion[3]  findWorstP[3,9]  5.1519835136527559e-01
    cashProportion[3]  findWorstP[4,3]  -2.4416049483193619e-01
    cashProportion[3]  findWorstP[5,3]  -9.8007187193727541e-01
    cashProportion[3]  findWorstP[6,3]  -2.4332873712385433e-01
    cashProportion[3]  findWorstP[7,3]  -3.0740854595757766e-01
    cashProportion[3]  findWorstP[8,3]  -6.0606060606060608e-01
    cashProportion[3]  findWorstP[9,3]  -7.8678206136900086e-01
    cashProportion[4]  allocateAllCash  1
    cashProportion[4]  findWorstP[1,4]  -4.0112314480545530e-01
    cashProportion[4]  findWorstP[2,4]  -2.4034609838166959e-01
    cashProportion[4]  findWorstP[3,4]  -5.1519835136527559e-01
    cashProportion[4]  findWorstP[4,1]  2.4416049483193619e-01
    cashProportion[4]  findWorstP[4,2]  2.4416049483193619e-01
    cashProportion[4]  findWorstP[4,3]  2.4416049483193619e-01
    cashProportion[4]  findWorstP[4,5]  2.4416049483193619e-01
    cashProportion[4]  findWorstP[4,6]  2.4416049483193619e-01
    cashProportion[4]  findWorstP[4,7]  2.4416049483193619e-01
    cashProportion[4]  findWorstP[4,8]  2.4416049483193619e-01
    cashProportion[4]  findWorstP[4,9]  2.4416049483193619e-01
    cashProportion[4]  findWorstP[5,4]  -9.8007187193727541e-01
    cashProportion[4]  findWorstP[6,4]  -2.4332873712385433e-01
    cashProportion[4]  findWorstP[7,4]  -3.0740854595757766e-01
    cashProportion[4]  findWorstP[8,4]  -6.0606060606060608e-01
    cashProportion[4]  findWorstP[9,4]  -7.8678206136900086e-01
    cashProportion[5]  allocateAllCash  1
    cashProportion[5]  findWorstP[1,5]  -4.0112314480545530e-01
    cashProportion[5]  findWorstP[2,5]  -2.4034609838166959e-01
    cashProportion[5]  findWorstP[3,5]  -5.1519835136527559e-01
    cashProportion[5]  findWorstP[4,5]  -2.4416049483193619e-01
    cashProportion[5]  findWorstP[5,1]  9.8007187193727541e-01
    cashProportion[5]  findWorstP[5,2]  9.8007187193727541e-01
    cashProportion[5]  findWorstP[5,3]  9.8007187193727541e-01
    cashProportion[5]  findWorstP[5,4]  9.8007187193727541e-01
    cashProportion[5]  findWorstP[5,6]  9.8007187193727541e-01
    cashProportion[5]  findWorstP[5,7]  9.8007187193727541e-01
    cashProportion[5]  findWorstP[5,8]  9.8007187193727541e-01
    cashProportion[5]  findWorstP[5,9]  9.8007187193727541e-01
    cashProportion[5]  findWorstP[6,5]  -2.4332873712385433e-01
    cashProportion[5]  findWorstP[7,5]  -3.0740854595757766e-01
    cashProportion[5]  findWorstP[8,5]  -6.0606060606060608e-01
    cashProportion[5]  findWorstP[9,5]  -7.8678206136900086e-01
    cashProportion[6]  allocateAllCash  1
    cashProportion[6]  findWorstP[1,6]  -4.0112314480545530e-01
    cashProportion[6]  findWorstP[2,6]  -2.4034609838166959e-01
    cashProportion[6]  findWorstP[3,6]  -5.1519835136527559e-01
    cashProportion[6]  findWorstP[4,6]  -2.4416049483193619e-01
    cashProportion[6]  findWorstP[5,6]  -9.8007187193727541e-01
    cashProportion[6]  findWorstP[6,1]  2.4332873712385433e-01
    cashProportion[6]  findWorstP[6,2]  2.4332873712385433e-01
    cashProportion[6]  findWorstP[6,3]  2.4332873712385433e-01
    cashProportion[6]  findWorstP[6,4]  2.4332873712385433e-01
    cashProportion[6]  findWorstP[6,5]  2.4332873712385433e-01
    cashProportion[6]  findWorstP[6,7]  2.4332873712385433e-01
    cashProportion[6]  findWorstP[6,8]  2.4332873712385433e-01
    cashProportion[6]  findWorstP[6,9]  2.4332873712385433e-01
    cashProportion[6]  findWorstP[7,6]  -3.0740854595757766e-01
    cashProportion[6]  findWorstP[8,6]  -6.0606060606060608e-01
    cashProportion[6]  findWorstP[9,6]  -7.8678206136900086e-01
    cashProportion[7]  allocateAllCash  1
    cashProportion[7]  findWorstP[1,7]  -4.0112314480545530e-01
    cashProportion[7]  findWorstP[2,7]  -2.4034609838166959e-01
    cashProportion[7]  findWorstP[3,7]  -5.1519835136527559e-01
    cashProportion[7]  findWorstP[4,7]  -2.4416049483193619e-01
    cashProportion[7]  findWorstP[5,7]  -9.8007187193727541e-01
    cashProportion[7]  findWorstP[6,7]  -2.4332873712385433e-01
    cashProportion[7]  findWorstP[7,1]  3.0740854595757766e-01
    cashProportion[7]  findWorstP[7,2]  3.0740854595757766e-01
    cashProportion[7]  findWorstP[7,3]  3.0740854595757766e-01
    cashProportion[7]  findWorstP[7,4]  3.0740854595757766e-01
    cashProportion[7]  findWorstP[7,5]  3.0740854595757766e-01
    cashProportion[7]  findWorstP[7,6]  3.0740854595757766e-01
    cashProportion[7]  findWorstP[7,8]  3.0740854595757766e-01
    cashProportion[7]  findWorstP[7,9]  3.0740854595757766e-01
    cashProportion[7]  findWorstP[8,7]  -6.0606060606060608e-01
    cashProportion[7]  findWorstP[9,7]  -7.8678206136900086e-01
    cashProportion[8]  allocateAllCash  1
    cashProportion[8]  findWorstP[1,8]  -4.0112314480545530e-01
    cashProportion[8]  findWorstP[2,8]  -2.4034609838166959e-01
    cashProportion[8]  findWorstP[3,8]  -5.1519835136527559e-01
    cashProportion[8]  findWorstP[4,8]  -2.4416049483193619e-01
    cashProportion[8]  findWorstP[5,8]  -9.8007187193727541e-01
    cashProportion[8]  findWorstP[6,8]  -2.4332873712385433e-01
    cashProportion[8]  findWorstP[7,8]  -3.0740854595757766e-01
    cashProportion[8]  findWorstP[8,1]  6.0606060606060608e-01
    cashProportion[8]  findWorstP[8,2]  6.0606060606060608e-01
    cashProportion[8]  findWorstP[8,3]  6.0606060606060608e-01
    cashProportion[8]  findWorstP[8,4]  6.0606060606060608e-01
    cashProportion[8]  findWorstP[8,5]  6.0606060606060608e-01
    cashProportion[8]  findWorstP[8,6]  6.0606060606060608e-01
    cashProportion[8]  findWorstP[8,7]  6.0606060606060608e-01
    cashProportion[8]  findWorstP[8,9]  6.0606060606060608e-01
    cashProportion[8]  findWorstP[9,8]  -7.8678206136900086e-01
    cashProportion[9]  allocateAllCash  1
    cashProportion[9]  findWorstP[1,9]  -4.0112314480545530e-01
    cashProportion[9]  findWorstP[2,9]  -2.4034609838166959e-01
    cashProportion[9]  findWorstP[3,9]  -5.1519835136527559e-01
    cashProportion[9]  findWorstP[4,9]  -2.4416049483193619e-01
    cashProportion[9]  findWorstP[5,9]  -9.8007187193727541e-01
    cashProportion[9]  findWorstP[6,9]  -2.4332873712385433e-01
    cashProportion[9]  findWorstP[7,9]  -3.0740854595757766e-01
    cashProportion[9]  findWorstP[8,9]  -6.0606060606060608e-01
    cashProportion[9]  findWorstP[9,1]  7.8678206136900086e-01
    cashProportion[9]  findWorstP[9,2]  7.8678206136900086e-01
    cashProportion[9]  findWorstP[9,3]  7.8678206136900086e-01
    cashProportion[9]  findWorstP[9,4]  7.8678206136900086e-01
    cashProportion[9]  findWorstP[9,5]  7.8678206136900086e-01
    cashProportion[9]  findWorstP[9,6]  7.8678206136900086e-01
    cashProportion[9]  findWorstP[9,7]  7.8678206136900086e-01
    cashProportion[9]  findWorstP[9,8]  7.8678206136900086e-01
    MARKER    'MARKER'                 'INTORG'
    x[1,1]    allocateEach[1]  1
    x[1,1]    findWorstP[1,2]  5.9887685519454481e-01
    x[1,1]    findWorstP[1,3]  5.9887685519454481e-01
    x[1,1]    findWorstP[1,4]  5.9887685519454481e-01
    x[1,1]    findWorstP[1,5]  5.9887685519454481e-01
    x[1,1]    findWorstP[1,6]  5.9887685519454481e-01
    x[1,1]    findWorstP[1,7]  5.9887685519454481e-01
    x[1,1]    findWorstP[1,8]  5.9887685519454481e-01
    x[1,1]    findWorstP[1,9]  5.9887685519454481e-01
    x[1,1]    findWorstP[2,1]  -7.5965390161833035e-01
    x[1,1]    findWorstP[3,1]  -4.8480164863472436e-01
    x[1,1]    findWorstP[4,1]  -7.5583950516806386e-01
    x[1,1]    findWorstP[5,1]  -1.9928128062724603e-02
    x[1,1]    findWorstP[6,1]  -7.5667126287614572e-01
    x[1,1]    findWorstP[7,1]  -6.9259145404242239e-01
    x[1,1]    findWorstP[8,1]  -0.393939393939394
    x[1,1]    findWorstP[9,1]  -2.1321793863099925e-01
    x[2,1]    allocateEach[1]  1
    x[2,1]    findWorstP[1,2]  -5.9887685519454481e-01
    x[2,1]    findWorstP[2,1]  7.5965390161833035e-01
    x[2,1]    findWorstP[2,3]  7.5965390161833035e-01
    x[2,1]    findWorstP[2,4]  7.5965390161833035e-01
    x[2,1]    findWorstP[2,5]  7.5965390161833035e-01
    x[2,1]    findWorstP[2,6]  7.5965390161833035e-01
    x[2,1]    findWorstP[2,7]  7.5965390161833035e-01
    x[2,1]    findWorstP[2,8]  7.5965390161833035e-01
    x[2,1]    findWorstP[2,9]  7.5965390161833035e-01
    x[2,1]    findWorstP[3,2]  -4.8480164863472436e-01
    x[2,1]    findWorstP[4,2]  -7.5583950516806386e-01
    x[2,1]    findWorstP[5,2]  -1.9928128062724603e-02
    x[2,1]    findWorstP[6,2]  -7.5667126287614572e-01
    x[2,1]    findWorstP[7,2]  -6.9259145404242239e-01
    x[2,1]    findWorstP[8,2]  -0.393939393939394
    x[2,1]    findWorstP[9,2]  -2.1321793863099925e-01
    x[3,1]    allocateEach[1]  1
    x[3,1]    findWorstP[1,3]  -5.9887685519454481e-01
    x[3,1]    findWorstP[2,3]  -7.5965390161833035e-01
    x[3,1]    findWorstP[3,1]  4.8480164863472436e-01
    x[3,1]    findWorstP[3,2]  4.8480164863472436e-01
    x[3,1]    findWorstP[3,4]  4.8480164863472436e-01
    x[3,1]    findWorstP[3,5]  4.8480164863472436e-01
    x[3,1]    findWorstP[3,6]  4.8480164863472436e-01
    x[3,1]    findWorstP[3,7]  4.8480164863472436e-01
    x[3,1]    findWorstP[3,8]  4.8480164863472436e-01
    x[3,1]    findWorstP[3,9]  4.8480164863472436e-01
    x[3,1]    findWorstP[4,3]  -7.5583950516806386e-01
    x[3,1]    findWorstP[5,3]  -1.9928128062724603e-02
    x[3,1]    findWorstP[6,3]  -7.5667126287614572e-01
    x[3,1]    findWorstP[7,3]  -6.9259145404242239e-01
    x[3,1]    findWorstP[8,3]  -0.393939393939394
    x[3,1]    findWorstP[9,3]  -2.1321793863099925e-01
    x[4,1]    allocateEach[1]  1
    x[4,1]    findWorstP[1,4]  -5.9887685519454481e-01
    x[4,1]    findWorstP[2,4]  -7.5965390161833035e-01
    x[4,1]    findWorstP[3,4]  -4.8480164863472436e-01
    x[4,1]    findWorstP[4,1]  7.5583950516806386e-01
    x[4,1]    findWorstP[4,2]  7.5583950516806386e-01
    x[4,1]    findWorstP[4,3]  7.5583950516806386e-01
    x[4,1]    findWorstP[4,5]  7.5583950516806386e-01
    x[4,1]    findWorstP[4,6]  7.5583950516806386e-01
    x[4,1]    findWorstP[4,7]  7.5583950516806386e-01
    x[4,1]    findWorstP[4,8]  7.5583950516806386e-01
    x[4,1]    findWorstP[4,9]  7.5583950516806386e-01
    x[4,1]    findWorstP[5,4]  -1.9928128062724603e-02
    x[4,1]    findWorstP[6,4]  -7.5667126287614572e-01
    x[4,1]    findWorstP[7,4]  -6.9259145404242239e-01
    x[4,1]    findWorstP[8,4]  -0.393939393939394
    x[4,1]    findWorstP[9,4]  -2.1321793863099925e-01
    x[5,1]    allocateEach[1]  1
    x[5,1]    findWorstP[1,5]  -5.9887685519454481e-01
    x[5,1]    findWorstP[2,5]  -7.5965390161833035e-01
    x[5,1]    findWorstP[3,5]  -4.8480164863472436e-01
    x[5,1]    findWorstP[4,5]  -7.5583950516806386e-01
    x[5,1]    findWorstP[5,1]  1.9928128062724603e-02
    x[5,1]    findWorstP[5,2]  1.9928128062724603e-02
    x[5,1]    findWorstP[5,3]  1.9928128062724603e-02
    x[5,1]    findWorstP[5,4]  1.9928128062724603e-02
    x[5,1]    findWorstP[5,6]  1.9928128062724603e-02
    x[5,1]    findWorstP[5,7]  1.9928128062724603e-02
    x[5,1]    findWorstP[5,8]  1.9928128062724603e-02
    x[5,1]    findWorstP[5,9]  1.9928128062724603e-02
    x[5,1]    findWorstP[6,5]  -7.5667126287614572e-01
    x[5,1]    findWorstP[7,5]  -6.9259145404242239e-01
    x[5,1]    findWorstP[8,5]  -0.393939393939394
    x[5,1]    findWorstP[9,5]  -2.1321793863099925e-01
    x[6,1]    allocateEach[1]  1
    x[6,1]    findWorstP[1,6]  -5.9887685519454481e-01
    x[6,1]    findWorstP[2,6]  -7.5965390161833035e-01
    x[6,1]    findWorstP[3,6]  -4.8480164863472436e-01
    x[6,1]    findWorstP[4,6]  -7.5583950516806386e-01
    x[6,1]    findWorstP[5,6]  -1.9928128062724603e-02
    x[6,1]    findWorstP[6,1]  7.5667126287614572e-01
    x[6,1]    findWorstP[6,2]  7.5667126287614572e-01
    x[6,1]    findWorstP[6,3]  7.5667126287614572e-01
    x[6,1]    findWorstP[6,4]  7.5667126287614572e-01
    x[6,1]    findWorstP[6,5]  7.5667126287614572e-01
    x[6,1]    findWorstP[6,7]  7.5667126287614572e-01
    x[6,1]    findWorstP[6,8]  7.5667126287614572e-01
    x[6,1]    findWorstP[6,9]  7.5667126287614572e-01
    x[6,1]    findWorstP[7,6]  -6.9259145404242239e-01
    x[6,1]    findWorstP[8,6]  -0.393939393939394
    x[6,1]    findWorstP[9,6]  -2.1321793863099925e-01
    x[7,1]    allocateEach[1]  1
    x[7,1]    findWorstP[1,7]  -5.9887685519454481e-01
    x[7,1]    findWorstP[2,7]  -7.5965390161833035e-01
    x[7,1]    findWorstP[3,7]  -4.8480164863472436e-01
    x[7,1]    findWorstP[4,7]  -7.5583950516806386e-01
    x[7,1]    findWorstP[5,7]  -1.9928128062724603e-02
    x[7,1]    findWorstP[6,7]  -7.5667126287614572e-01
    x[7,1]    findWorstP[7,1]  6.9259145404242239e-01
    x[7,1]    findWorstP[7,2]  6.9259145404242239e-01
    x[7,1]    findWorstP[7,3]  6.9259145404242239e-01
    x[7,1]    findWorstP[7,4]  6.9259145404242239e-01
    x[7,1]    findWorstP[7,5]  6.9259145404242239e-01
    x[7,1]    findWorstP[7,6]  6.9259145404242239e-01
    x[7,1]    findWorstP[7,8]  6.9259145404242239e-01
    x[7,1]    findWorstP[7,9]  6.9259145404242239e-01
    x[7,1]    findWorstP[8,7]  -0.393939393939394
    x[7,1]    findWorstP[9,7]  -2.1321793863099925e-01
    x[8,1]    allocateEach[1]  1
    x[8,1]    findWorstP[1,8]  -5.9887685519454481e-01
    x[8,1]    findWorstP[2,8]  -7.5965390161833035e-01
    x[8,1]    findWorstP[3,8]  -4.8480164863472436e-01
    x[8,1]    findWorstP[4,8]  -7.5583950516806386e-01
    x[8,1]    findWorstP[5,8]  -1.9928128062724603e-02
    x[8,1]    findWorstP[6,8]  -7.5667126287614572e-01
    x[8,1]    findWorstP[7,8]  -6.9259145404242239e-01
    x[8,1]    findWorstP[8,1]  0.393939393939394
    x[8,1]    findWorstP[8,2]  0.393939393939394
    x[8,1]    findWorstP[8,3]  0.393939393939394
    x[8,1]    findWorstP[8,4]  0.393939393939394
    x[8,1]    findWorstP[8,5]  0.393939393939394
    x[8,1]    findWorstP[8,6]  0.393939393939394
    x[8,1]    findWorstP[8,7]  0.393939393939394
    x[8,1]    findWorstP[8,9]  0.393939393939394
    x[8,1]    findWorstP[9,8]  -2.1321793863099925e-01
    x[9,1]    allocateEach[1]  1
    x[9,1]    findWorstP[1,9]  -5.9887685519454481e-01
    x[9,1]    findWorstP[2,9]  -7.5965390161833035e-01
    x[9,1]    findWorstP[3,9]  -4.8480164863472436e-01
    x[9,1]    findWorstP[4,9]  -7.5583950516806386e-01
    x[9,1]    findWorstP[5,9]  -1.9928128062724603e-02
    x[9,1]    findWorstP[6,9]  -7.5667126287614572e-01
    x[9,1]    findWorstP[7,9]  -6.9259145404242239e-01
    x[9,1]    findWorstP[8,9]  -0.393939393939394
    x[9,1]    findWorstP[9,1]  2.1321793863099925e-01
    x[9,1]    findWorstP[9,2]  2.1321793863099925e-01
    x[9,1]    findWorstP[9,3]  2.1321793863099925e-01
    x[9,1]    findWorstP[9,4]  2.1321793863099925e-01
    x[9,1]    findWorstP[9,5]  2.1321793863099925e-01
    x[9,1]    findWorstP[9,6]  2.1321793863099925e-01
    x[9,1]    findWorstP[9,7]  2.1321793863099925e-01
    x[9,1]    findWorstP[9,8]  2.1321793863099925e-01
    MARKER    'MARKER'                 'INTEND'
RHS
    RHS1      allocateEach[1]  1
    RHS1      allocateAllCash  1
BOUNDS
 UP BND1      z         1
 MI BND1      cashProportion[1]
 UP BND1      cashProportion[1]  1
 MI BND1      cashProportion[2]
 UP BND1      cashProportion[2]  1
 MI BND1      cashProportion[3]
 UP BND1      cashProportion[3]  1
 MI BND1      cashProportion[4]
 UP BND1      cashProportion[4]  1
 MI BND1      cashProportion[5]
 UP BND1      cashProportion[5]  1
 MI BND1      cashProportion[6]
 UP BND1      cashProportion[6]  1
 MI BND1      cashProportion[7]
 UP BND1      cashProportion[7]  1
 MI BND1      cashProportion[8]
 UP BND1      cashProportion[8]  1
 MI BND1      cashProportion[9]
 UP BND1      cashProportion[9]  1
 BV BND1      x[1,1]  
 BV BND1      x[2,1]  
 BV BND1      x[3,1]  
 BV BND1      x[4,1]  
 BV BND1      x[5,1]  
 BV BND1      x[6,1]  
 BV BND1      x[7,1]  
 BV BND1      x[8,1]  
 BV BND1      x[9,1]  
ENDATA
